n_res = 4;
rcap = [20, 28, 76, 88];
rtype = [1, 1, 2, 2];
n_tasks = 18;
modes = [ {1, 2, 3}, {4, 5, 6}, {7, 8, 9}, {10, 11, 12}, {13, 14, 15}, {16, 17, 18}, {19, 20, 21}, {22, 23, 24}, {25, 26, 27}, {28, 29, 30}, {31, 32, 33}, {34, 35, 36}, {37, 38, 39}, {40, 41, 42}, {43, 44, 45}, {46, 47, 48}, {49, 50, 51}, {52, 53, 54} ];
succ = [ {4, 5, 10}, {6, 9}, {6, 12, 15}, {12, 16}, {9, 11, 17}, {7, 8}, {10, 14}, {11, 13}, {15, 18}, {11, 17}, {18}, {14}, {14, 16}, {17, 18}, {16}, {}, {}, {} ];
n_opt = 54;
dur = [3, 5, 8, 5, 8, 10, 1, 2, 9, 5, 6, 9, 2, 4, 5, 4, 7, 8, 5, 9, 9, 1, 2, 5, 1, 4, 7, 2, 3, 7, 6, 6, 6, 10, 10, 10, 9, 10, 10, 6, 6, 9, 5, 6, 10, 5, 7, 10, 2, 4, 7, 1, 9, 9];
rreq = [|  9,  8,  6,  7,  4,  2,  4,  2,  1,  3,  2,  1, 10,  9,  8,  9,  8,  6,  6,  5,  6,  8,  6,  3,  7,  4,  2,  6,  4,  3,  5,  5,  5,  3,  3,  3,  7,  4,  1,  3,  3,  3,  2,  2,  2,  8,  6,  4,  6,  5,  5,  7,  7,  5
        |  3,  2,  1,  4,  3,  3,  7,  6,  6,  7,  6,  6,  8,  7,  7,  5,  4,  3,  8,  6,  8,  7,  7,  6,  2,  1,  1,  7,  6,  4,  7,  6,  5,  7,  4,  3,  5,  4,  4,  6,  8,  2,  6,  6,  5,  6,  6,  6,  8,  5,  5,  2,  1,  1
        |  3,  3,  2,  8,  7,  4,  4,  2,  2,  6,  6,  5,  8,  7,  1,  6,  6,  6,  6,  5,  4,  8,  7,  4,  6,  6,  6,  8,  4,  2,  3,  5,  6,  3,  3,  4,  7,  4,  6,  4,  4,  4,  7,  6,  2,  8,  8,  5,  7,  5,  4,  4,  3,  4
        |  3,  2,  2,  6,  5,  4,  8,  6,  2, 10, 10,  9,  9,  9,  8,  4,  4,  4,  6,  5,  6,  9,  9,  8,  8,  6,  5,  7,  6,  4,  2,  1,  2,  3,  5,  1,  7,  4,  4, 10,  6,  2,  9,  9,  8,  7,  3,  3,  6,  5,  3,  6,  3,  4 |];
